Minimize
  n_fork_025_flop + cst_0_icmp_05_flop + icmp_0_fork_128_flop + cst_4_branch_513_flop + start_0_forkC_633_flop + cst_5_phi_n270_flop + branch_5_phi_22185_flop + branch_5_sink_4207_flop + branch_7_phi_n375_flop + branch_7_sink_5208_flop + branchC_9_forkC_1041_flop + branchC_9_sink_7210_flop + fork_0_icmp_04_flop + fork_0_branch_717_flop + fork_1_branch_514_flop + fork_1_branch_718_flop + fork_1_branchC_922_flop + fork_1_phi_22184_flop + forkC_6_cst_02_flop + forkC_6_cst_47_flop + forkC_6_cst_511_flop + forkC_6_branchC_921_flop + forkC_6_phiC_168_flop + cst_1_phi_346_flop + forkC_10_cst_139_flop + forkC_10_phiC_479_flop + load_6_MC_feature197_flop + load_9_LSQ_hist192_flop + forkC_0_LSQ_hist190_flop + branch_2_sink_1204_flop + branch_3_sink_2205_flop + branch_4_sink_3206_flop + branch_8_sink_6209_flop + branchC_11_sink_8211_flop + branchC_12_sink_9212_flop + branchC_13_sink_10213_flop + load_14_MC_weight200_flop + store_0_LSQ_hist193_flop + store_0_LSQ_hist194_flop + forkC_1_LSQ_hist191_flop + branchC_0_sink_0203_flop + branch_1_phi_22186_flop + phi_22_ret_0188_flop + ret_0_end_0217_flop + LSQ_hist_load_952_flop + LSQ_hist_end_0214_flop + MC_feature_load_648_flop + MC_feature_end_0215_flop + MC_weight_load_14139_flop + MC_weight_end_0216_flop
Subject to
  timePath_n_out1 <= 4
  timePath_fork_0_in1 <= 4
  8 n_fork_025_flop - timePath_n_out1 + timePath_fork_0_in1 >= 0
  timePath_cst_0_out1 <= 4
  timePath_icmp_0_in2 <= 4
  8 cst_0_icmp_05_flop - timePath_cst_0_out1 + timePath_icmp_0_in2 >= 0
  timePath_icmp_0_out1 <= 4
  timePath_fork_1_in1 <= 4
  8 icmp_0_fork_128_flop - timePath_icmp_0_out1 + timePath_fork_1_in1 >= 0
  timePath_cst_4_out1 <= 4
  timePath_branch_5_in1 <= 4
  8 cst_4_branch_513_flop - timePath_cst_4_out1 + timePath_branch_5_in1 >= 0
  timePath_start_0_out1 <= 4
  timePath_forkC_6_in1 <= 4
  8 start_0_forkC_633_flop - timePath_start_0_out1 + timePath_forkC_6_in1 >= 0
  timePath_cst_5_out1 <= 4
  timePath_phi_n2_in1 <= 4
  8 cst_5_phi_n270_flop - timePath_cst_5_out1 + timePath_phi_n2_in1 >= 0
  timePath_branch_5_out2 <= 4
  timePath_phi_22_in2 <= 4
  8 branch_5_phi_22185_flop - timePath_branch_5_out2 + timePath_phi_22_in2 >= 0
  timePath_branch_5_out1 <= 4
  timePath_sink_4_in1 <= 4
  8 branch_5_sink_4207_flop - timePath_branch_5_out1 + timePath_sink_4_in1 >= 0
  timePath_branch_7_out2 <= 4
  timePath_phi_n3_in3 <= 4
  8 branch_7_phi_n375_flop - timePath_branch_7_out2 + timePath_phi_n3_in3 >= 0
  timePath_branch_7_out1 <= 4
  timePath_sink_5_in1 <= 4
  8 branch_7_sink_5208_flop - timePath_branch_7_out1 + timePath_sink_5_in1 >= 0
  timePath_branchC_9_out2 <= 4
  timePath_forkC_10_in1 <= 4
  8 branchC_9_forkC_1041_flop - timePath_branchC_9_out2 + timePath_forkC_10_in1 >= 0
  timePath_branchC_9_out1 <= 4
  timePath_sink_7_in1 <= 4
  8 branchC_9_sink_7210_flop - timePath_branchC_9_out1 + timePath_sink_7_in1 >= 0
  timePath_fork_0_out1 <= 4
  timePath_icmp_0_in1 <= 4
  8 fork_0_icmp_04_flop + timePath_icmp_0_in1 - timePath_fork_0_out1 >= 0
  timePath_fork_0_out2 <= 4
  timePath_branch_7_in1 <= 4
  8 fork_0_branch_717_flop + timePath_branch_7_in1 - timePath_fork_0_out2 >= 0
  timePath_fork_1_out1 <= 4
  timePath_branch_5_in2 <= 4
  8 fork_1_branch_514_flop + timePath_branch_5_in2 - timePath_fork_1_out1 >= 0
  timePath_fork_1_out2 <= 4
  timePath_branch_7_in2 <= 4
  8 fork_1_branch_718_flop + timePath_branch_7_in2 - timePath_fork_1_out2 >= 0
  timePath_fork_1_out3 <= 4
  timePath_branchC_9_in2 <= 4
  8 fork_1_branchC_922_flop + timePath_branchC_9_in2 - timePath_fork_1_out3 >= 0
  timePath_fork_1_out4 <= 4
  timePath_phi_22_in1 <= 4
  8 fork_1_phi_22184_flop - timePath_fork_1_out4 + timePath_phi_22_in1 >= 0
  timePath_forkC_6_out1 <= 4
  timePath_cst_0_in1 <= 4
  8 forkC_6_cst_02_flop + timePath_cst_0_in1 - timePath_forkC_6_out1 >= 0
  timePath_forkC_6_out3 <= 4
  timePath_cst_4_in1 <= 4
  8 forkC_6_cst_47_flop + timePath_cst_4_in1 - timePath_forkC_6_out3 >= 0
  timePath_forkC_6_out4 <= 4
  timePath_cst_5_in1 <= 4
  8 forkC_6_cst_511_flop + timePath_cst_5_in1 - timePath_forkC_6_out4 >= 0
  timePath_forkC_6_out2 <= 4
  timePath_branchC_9_in1 <= 4
  8 forkC_6_branchC_921_flop + timePath_branchC_9_in1 - timePath_forkC_6_out2 >= 0
  timePath_forkC_6_out5 <= 4
  timePath_phiC_1_in3 <= 4
  8 forkC_6_phiC_168_flop - timePath_forkC_6_out5 + timePath_phiC_1_in3 >= 0
  timePath_cst_1_out1 <= 4
  timePath_phi_3_in3 <= 4
  8 cst_1_phi_346_flop - timePath_cst_1_out1 + timePath_phi_3_in3 >= 0
  timePath_forkC_10_out1 <= 4
  timePath_cst_1_in1 <= 4
  8 forkC_10_cst_139_flop + timePath_cst_1_in1 - timePath_forkC_10_out1 >= 0
  timePath_forkC_10_out2 <= 4
  timePath_phiC_4_in3 <= 4
  8 forkC_10_phiC_479_flop - timePath_forkC_10_out2 + timePath_phiC_4_in3 >= 0
  timePath_phi_3_out1 <= 4
  timePath_fork_2_in1 <= 4
  -timePath_phi_3_out1 + timePath_fork_2_in1 >= -8
  timePath_load_6_out1 <= 4
  timePath_fork_11_in1 <= 4
  -timePath_load_6_out1 + timePath_fork_11_in1 >= -0
  timePath_load_9_out1 <= 4
  timePath_fork_12_in1 <= 4
  -timePath_load_9_out1 + timePath_fork_12_in1 >= -0
  timePath_cst_2_out1 <= 4
  timePath_icmp_10_in2 <= 4
  -timePath_cst_2_out1 + timePath_icmp_10_in2 >= -0
  timePath_icmp_10_out1 <= 4
  timePath_fork_3_in1 <= 4
  -timePath_icmp_10_out1 + timePath_fork_3_in1 >= -0
  timePath_forkC_0_out1 <= 4
  timePath_buffer_bx_op_0_in1 <= 4
  -timePath_forkC_0_out1 + timePath_buffer_bx_op_0_in1 >= -8
  timePath_buffer_bx_op_0_out1 <= 4
  timePath_branchC_12_in1 <= 4
  -timePath_buffer_bx_op_0_out1 + timePath_branchC_12_in1 >= -0
  timePath_phiC_1_out1 <= 4
  timePath_forkC_0_in1 <= 4
  timePath_forkC_0_in1 - timePath_phiC_1_out1 >= -0
  timePath_phi_n2_out1 <= 4
  timePath_fork_7_in1 <= 4
  -timePath_phi_n2_out1 + timePath_fork_7_in1 >= -0
  timePath_phi_n3_out1 <= 4
  timePath_fork_8_in1 <= 4
  -timePath_phi_n3_out1 + timePath_fork_8_in1 >= -8
  timePath_phiC_4_out1 <= 4
  timePath_forkC_9_in1 <= 4
  -timePath_phiC_4_out1 + timePath_forkC_9_in1 >= -8
  timePath_branch_2_out2 <= 4
  timePath_load_14_in2 <= 4
  -timePath_branch_2_out2 + timePath_load_14_in2 >= -0
  timePath_branch_2_out1 <= 4
  timePath_sink_1_in1 <= 4
  8 branch_2_sink_1204_flop - timePath_branch_2_out1 + timePath_sink_1_in1 >= 0
  timePath_branch_3_out2 <= 4
  timePath_add_15_in1 <= 4
  -timePath_branch_3_out2 + timePath_add_15_in1 >= -0
  timePath_branch_3_out1 <= 4
  timePath_sink_2_in1 <= 4
  8 branch_3_sink_2205_flop - timePath_branch_3_out1 + timePath_sink_2_in1 >= 0
  timePath_branch_4_out2 <= 4
  timePath_store_0_in2 <= 4
  -timePath_branch_4_out2 + timePath_store_0_in2 >= -0
  timePath_branch_4_out1 <= 4
  timePath_sink_3_in1 <= 4
  8 branch_4_sink_3206_flop - timePath_branch_4_out1 + timePath_sink_3_in1 >= 0
  timePath_branch_8_out2 <= 4
  timePath_phi_n3_in2 <= 4
  timePath_phi_n3_in2 - timePath_branch_8_out2 >= -0
  timePath_branch_8_out1 <= 4
  timePath_sink_6_in1 <= 4
  8 branch_8_sink_6209_flop - timePath_branch_8_out1 + timePath_sink_6_in1 >= 0
  timePath_branchC_11_out2 <= 4
  timePath_phiC_4_in2 <= 4
  timePath_phiC_4_in2 - timePath_branchC_11_out2 >= -0
  timePath_branchC_11_out1 <= 4
  timePath_sink_8_in1 <= 4
  8 branchC_11_sink_8211_flop - timePath_branchC_11_out1 + timePath_sink_8_in1 >= 0
  timePath_branchC_12_out2 <= 4
  timePath_forkC_1_in1 <= 4
  -timePath_branchC_12_out2 + timePath_forkC_1_in1 >= -0
  timePath_branchC_12_out1 <= 4
  timePath_sink_9_in1 <= 4
  8 branchC_12_sink_9212_flop - timePath_branchC_12_out1 + timePath_sink_9_in1 >= 0
  timePath_branchC_13_out2 <= 4
  timePath_phiC_0_in3 <= 4
  -timePath_branchC_13_out2 + timePath_phiC_0_in3 >= -8
  timePath_branchC_13_out1 <= 4
  timePath_sink_10_in1 <= 4
  8 branchC_13_sink_10213_flop - timePath_branchC_13_out1 + timePath_sink_10_in1 >= 0
  timePath_fork_2_out2 <= 4
  timePath_load_6_in2 <= 4
  timePath_load_6_in2 - timePath_fork_2_out2 >= -0
  timePath_fork_2_out3 <= 4
  timePath_branch_2_in1 <= 4
  timePath_branch_2_in1 - timePath_fork_2_out3 >= -0
  timePath_fork_2_out1 <= 4
  timePath_add_19_in1 <= 4
  -timePath_fork_2_out1 + timePath_add_19_in1 >= -0
  timePath_fork_3_out2 <= 4
  timePath_branch_2_in2 <= 4
  timePath_branch_2_in2 - timePath_fork_3_out2 >= -0
  timePath_fork_3_out3 <= 4
  timePath_branch_3_in2 <= 4
  timePath_branch_3_in2 - timePath_fork_3_out3 >= -0
  timePath_fork_3_out4 <= 4
  timePath_branch_4_in2 <= 4
  timePath_branch_4_in2 - timePath_fork_3_out4 >= -0
  timePath_fork_3_out5 <= 4
  timePath_branchC_12_in2 <= 4
  timePath_branchC_12_in2 - timePath_fork_3_out5 >= -0
  timePath_fork_3_out6 <= 4
  timePath_branchC_13_in2 <= 4
  timePath_branchC_13_in2 - timePath_fork_3_out6 >= -0
  timePath_fork_3_out1 <= 4
  timePath_phiC_0_in1 <= 4
  -timePath_fork_3_out1 + timePath_phiC_0_in1 >= -8
  timePath_fork_7_out2 <= 4
  timePath_phi_3_in1 <= 4
  timePath_phi_3_in1 - timePath_fork_7_out2 >= -0
  timePath_fork_7_out1 <= 4
  timePath_phiC_1_in1 <= 4
  timePath_phiC_1_in1 - timePath_fork_7_out1 >= -0
  timePath_fork_7_out3 <= 4
  timePath_phi_n3_in1 <= 4
  timePath_phi_n3_in1 - timePath_fork_7_out3 >= -0
  timePath_fork_7_out4 <= 4
  timePath_phiC_4_in1 <= 4
  timePath_phiC_4_in1 - timePath_fork_7_out4 >= -0
  timePath_fork_8_out2 <= 4
  timePath_branch_8_in1 <= 4
  timePath_branch_8_in1 - timePath_fork_8_out2 >= -0
  timePath_fork_8_out1 <= 4
  timePath_icmp_20_in2 <= 4
  -timePath_fork_8_out1 + timePath_icmp_20_in2 >= -0
  timePath_forkC_9_out1 <= 4
  timePath_cst_2_in1 <= 4
  timePath_cst_2_in1 - timePath_forkC_9_out1 >= -0
  timePath_forkC_9_out2 <= 4
  timePath_branchC_11_in1 <= 4
  timePath_branchC_11_in1 - timePath_forkC_9_out2 >= -0
  timePath_forkC_9_out4 <= 4
  timePath_branchC_13_in1 <= 4
  timePath_branchC_13_in1 - timePath_forkC_9_out4 >= -0
  timePath_forkC_9_out3 <= 4
  timePath_cst_3_in1 <= 4
  -timePath_forkC_9_out3 + timePath_cst_3_in1 >= -0
  timePath_fork_11_out1 <= 4
  timePath_load_9_in2 <= 4
  timePath_load_9_in2 - timePath_fork_11_out1 >= -0
  timePath_fork_11_out2 <= 4
  timePath_branch_4_in1 <= 4
  timePath_branch_4_in1 - timePath_fork_11_out2 >= -0
  timePath_fork_12_out1 <= 4
  timePath_icmp_10_in1 <= 4
  timePath_icmp_10_in1 - timePath_fork_12_out1 >= -0
  timePath_fork_12_out2 <= 4
  timePath_branch_3_in1 <= 4
  timePath_branch_3_in1 - timePath_fork_12_out2 >= -0
  timePath_load_14_out1 <= 4
  timePath_add_15_in2 <= 4
  -timePath_load_14_out1 + timePath_add_15_in2 >= -0
  timePath_add_15_out1 <= 4
  timePath_store_0_in1 <= 4
  -timePath_add_15_out1 + timePath_store_0_in1 >= -0
  timePath_forkC_1_out1 <= 4
  timePath_buffer_bx_op_1_in1 <= 4
  -timePath_forkC_1_out1 + timePath_buffer_bx_op_1_in1 >= -8
  timePath_buffer_bx_op_1_out1 <= 4
  timePath_phiC_0_in2 <= 4
  -timePath_buffer_bx_op_1_out1 + timePath_phiC_0_in2 >= -0
  timePath_phiC_0_out1 <= 4
  timePath_branchC_0_in1 <= 4
  -timePath_phiC_0_out1 + timePath_branchC_0_in1 >= -0
  timePath_cst_3_out1 <= 4
  timePath_add_19_in2 <= 4
  -timePath_cst_3_out1 + timePath_add_19_in2 >= -0
  timePath_add_19_out1 <= 4
  timePath_fork_4_in1 <= 4
  -timePath_add_19_out1 + timePath_fork_4_in1 >= -0
  timePath_icmp_20_out1 <= 4
  timePath_fork_5_in1 <= 4
  -timePath_icmp_20_out1 + timePath_fork_5_in1 >= -0
  timePath_branchC_0_out2 <= 4
  timePath_phiC_1_in2 <= 4
  timePath_phiC_1_in2 - timePath_branchC_0_out2 >= -0
  timePath_branchC_0_out1 <= 4
  timePath_sink_0_in1 <= 4
  8 branchC_0_sink_0203_flop - timePath_branchC_0_out1 + timePath_sink_0_in1 >= 0
  timePath_branch_1_out2 <= 4
  timePath_phi_3_in2 <= 4
  timePath_phi_3_in2 - timePath_branch_1_out2 >= -0
  timePath_branch_1_out1 <= 4
  timePath_phi_22_in3 <= 4
  8 branch_1_phi_22186_flop - timePath_branch_1_out1 + timePath_phi_22_in3 >= 0
  timePath_fork_4_out1 <= 4
  timePath_icmp_20_in1 <= 4
  timePath_icmp_20_in1 - timePath_fork_4_out1 >= -0
  timePath_fork_4_out2 <= 4
  timePath_branch_1_in1 <= 4
  timePath_branch_1_in1 - timePath_fork_4_out2 >= -0
  timePath_fork_5_out2 <= 4
  timePath_phi_n2_in2 <= 4
  timePath_phi_n2_in2 - timePath_fork_5_out2 >= -0
  timePath_fork_5_out4 <= 4
  timePath_branch_8_in2 <= 4
  timePath_branch_8_in2 - timePath_fork_5_out4 >= -0
  timePath_fork_5_out5 <= 4
  timePath_branchC_11_in2 <= 4
  timePath_branchC_11_in2 - timePath_fork_5_out5 >= -0
  timePath_fork_5_out1 <= 4
  timePath_branchC_0_in2 <= 4
  timePath_branchC_0_in2 - timePath_fork_5_out1 >= -0
  timePath_fork_5_out3 <= 4
  timePath_branch_1_in2 <= 4
  timePath_branch_1_in2 - timePath_fork_5_out3 >= -0
  timePath_phi_22_out1 <= 4
  timePath_ret_0_in1 <= 4
  8 phi_22_ret_0188_flop - timePath_phi_22_out1 + timePath_ret_0_in1 >= 0
  timePath_ret_0_out1 <= 4
  timePath_end_0_in4 <= 4
  8 ret_0_end_0217_flop - timePath_ret_0_out1 + timePath_end_0_in4 >= 0
  -timePath_cst_0_in1 + timePath_cst_0_out1 >= 0
  -timePath_icmp_0_in1 + timePath_icmp_0_out1 >= 1.53
  -timePath_icmp_0_in2 + timePath_icmp_0_out1 >= 1.53
  -timePath_cst_4_in1 + timePath_cst_4_out1 >= 0
  -timePath_cst_5_in1 + timePath_cst_5_out1 >= 0
  -timePath_branch_5_in1 + timePath_branch_5_out1 >= 0
  -timePath_branch_5_in2 + timePath_branch_5_out1 >= 0
  -timePath_branch_5_in1 + timePath_branch_5_out2 >= 0
  -timePath_branch_5_in2 + timePath_branch_5_out2 >= 0
  -timePath_branch_7_in1 + timePath_branch_7_out1 >= 0
  -timePath_branch_7_in2 + timePath_branch_7_out1 >= 0
  -timePath_branch_7_in1 + timePath_branch_7_out2 >= 0
  -timePath_branch_7_in2 + timePath_branch_7_out2 >= 0
  -timePath_branchC_9_in1 + timePath_branchC_9_out1 >= 0
  -timePath_branchC_9_in2 + timePath_branchC_9_out1 >= 0
  -timePath_branchC_9_in1 + timePath_branchC_9_out2 >= 0
  -timePath_branchC_9_in2 + timePath_branchC_9_out2 >= 0
  -timePath_fork_0_in1 + timePath_fork_0_out1 >= 0
  -timePath_fork_0_in1 + timePath_fork_0_out2 >= 0
  -timePath_fork_1_in1 + timePath_fork_1_out1 >= 0
  -timePath_fork_1_in1 + timePath_fork_1_out2 >= 0
  -timePath_fork_1_in1 + timePath_fork_1_out3 >= 0
  -timePath_fork_1_in1 + timePath_fork_1_out4 >= 0
  -timePath_forkC_6_in1 + timePath_forkC_6_out1 >= 0
  -timePath_forkC_6_in1 + timePath_forkC_6_out2 >= 0
  -timePath_forkC_6_in1 + timePath_forkC_6_out3 >= 0
  -timePath_forkC_6_in1 + timePath_forkC_6_out4 >= 0
  -timePath_forkC_6_in1 + timePath_forkC_6_out5 >= 0
  -timePath_cst_1_in1 + timePath_cst_1_out1 >= 0
  -timePath_forkC_10_in1 + timePath_forkC_10_out1 >= 0
  -timePath_forkC_10_in1 + timePath_forkC_10_out2 >= 0
  -timePath_phi_3_in1 + timePath_phi_3_out1 >= 0.366
  -timePath_phi_3_in2 + timePath_phi_3_out1 >= 0.366
  -timePath_phi_3_in3 + timePath_phi_3_out1 >= 0.366
  timePath_load_6_out1 = 0
  timePath_load_6_out2 = 0
  timePath_load_6_in1 <= 4
  timePath_load_6_in2 <= 4
  timePath_load_9_out1 = 0
  timePath_load_9_out2 = 0
  timePath_load_9_in1 <= 4
  timePath_load_9_in2 <= 4
  -timePath_cst_2_in1 + timePath_cst_2_out1 >= 0
  -timePath_icmp_10_in1 + timePath_icmp_10_out1 >= 1.53
  -timePath_icmp_10_in2 + timePath_icmp_10_out1 >= 1.53
  -timePath_forkC_0_in1 + timePath_forkC_0_out1 >= 0
  -timePath_forkC_0_in1 + timePath_forkC_0_out2 >= 0
  timePath_buffer_bx_op_0_out1 = 0
  timePath_buffer_bx_op_0_in1 <= 4
  -timePath_phiC_1_in1 + timePath_phiC_1_out1 >= 0.166
  -timePath_phiC_1_in2 + timePath_phiC_1_out1 >= 0.166
  -timePath_phiC_1_in3 + timePath_phiC_1_out1 >= 0.166
  -timePath_phi_n2_in1 + timePath_phi_n2_out1 >= 0.366
  -timePath_phi_n2_in2 + timePath_phi_n2_out1 >= 0.366
  -timePath_phi_n3_in1 + timePath_phi_n3_out1 >= 0.366
  -timePath_phi_n3_in2 + timePath_phi_n3_out1 >= 0.366
  -timePath_phi_n3_in3 + timePath_phi_n3_out1 >= 0.366
  -timePath_phiC_4_in1 + timePath_phiC_4_out1 >= 0.166
  -timePath_phiC_4_in2 + timePath_phiC_4_out1 >= 0.166
  -timePath_phiC_4_in3 + timePath_phiC_4_out1 >= 0.166
  -timePath_branch_2_in1 + timePath_branch_2_out1 >= 0
  -timePath_branch_2_in2 + timePath_branch_2_out1 >= 0
  -timePath_branch_2_in1 + timePath_branch_2_out2 >= 0
  -timePath_branch_2_in2 + timePath_branch_2_out2 >= 0
  -timePath_branch_3_in1 + timePath_branch_3_out1 >= 0
  -timePath_branch_3_in2 + timePath_branch_3_out1 >= 0
  -timePath_branch_3_in1 + timePath_branch_3_out2 >= 0
  -timePath_branch_3_in2 + timePath_branch_3_out2 >= 0
  -timePath_branch_4_in1 + timePath_branch_4_out1 >= 0
  -timePath_branch_4_in2 + timePath_branch_4_out1 >= 0
  -timePath_branch_4_in1 + timePath_branch_4_out2 >= 0
  -timePath_branch_4_in2 + timePath_branch_4_out2 >= 0
  -timePath_branch_8_in1 + timePath_branch_8_out1 >= 0
  -timePath_branch_8_in2 + timePath_branch_8_out1 >= 0
  -timePath_branch_8_in1 + timePath_branch_8_out2 >= 0
  -timePath_branch_8_in2 + timePath_branch_8_out2 >= 0
  -timePath_branchC_11_in1 + timePath_branchC_11_out1 >= 0
  -timePath_branchC_11_in2 + timePath_branchC_11_out1 >= 0
  -timePath_branchC_11_in1 + timePath_branchC_11_out2 >= 0
  -timePath_branchC_11_in2 + timePath_branchC_11_out2 >= 0
  -timePath_branchC_12_in1 + timePath_branchC_12_out1 >= 0
  -timePath_branchC_12_in2 + timePath_branchC_12_out1 >= 0
  -timePath_branchC_12_in1 + timePath_branchC_12_out2 >= 0
  -timePath_branchC_12_in2 + timePath_branchC_12_out2 >= 0
  -timePath_branchC_13_in1 + timePath_branchC_13_out1 >= 0
  -timePath_branchC_13_in2 + timePath_branchC_13_out1 >= 0
  -timePath_branchC_13_in1 + timePath_branchC_13_out2 >= 0
  -timePath_branchC_13_in2 + timePath_branchC_13_out2 >= 0
  -timePath_fork_2_in1 + timePath_fork_2_out1 >= 0
  -timePath_fork_2_in1 + timePath_fork_2_out2 >= 0
  -timePath_fork_2_in1 + timePath_fork_2_out3 >= 0
  -timePath_fork_3_in1 + timePath_fork_3_out1 >= 0
  -timePath_fork_3_in1 + timePath_fork_3_out2 >= 0
  -timePath_fork_3_in1 + timePath_fork_3_out3 >= 0
  -timePath_fork_3_in1 + timePath_fork_3_out4 >= 0
  -timePath_fork_3_in1 + timePath_fork_3_out5 >= 0
  -timePath_fork_3_in1 + timePath_fork_3_out6 >= 0
  -timePath_fork_7_in1 + timePath_fork_7_out1 >= 0
  -timePath_fork_7_in1 + timePath_fork_7_out2 >= 0
  -timePath_fork_7_in1 + timePath_fork_7_out3 >= 0
  -timePath_fork_7_in1 + timePath_fork_7_out4 >= 0
  -timePath_fork_8_in1 + timePath_fork_8_out1 >= 0
  -timePath_fork_8_in1 + timePath_fork_8_out2 >= 0
  -timePath_forkC_9_in1 + timePath_forkC_9_out1 >= 0
  -timePath_forkC_9_in1 + timePath_forkC_9_out2 >= 0
  -timePath_forkC_9_in1 + timePath_forkC_9_out3 >= 0
  -timePath_forkC_9_in1 + timePath_forkC_9_out4 >= 0
  -timePath_fork_11_in1 + timePath_fork_11_out1 >= 0
  -timePath_fork_11_in1 + timePath_fork_11_out2 >= 0
  -timePath_fork_12_in1 + timePath_fork_12_out1 >= 0
  -timePath_fork_12_in1 + timePath_fork_12_out2 >= 0
  timePath_load_14_out1 = 0
  timePath_load_14_out2 = 0
  timePath_load_14_in1 <= 4
  timePath_load_14_in2 <= 4
  -timePath_add_15_in1 + timePath_add_15_out1 >= 1.693
  -timePath_add_15_in2 + timePath_add_15_out1 >= 1.693
  -timePath_store_0_in1 + timePath_store_0_out1 >= 0
  -timePath_store_0_in2 + timePath_store_0_out1 >= 0
  -timePath_store_0_in1 + timePath_store_0_out2 >= 0
  -timePath_store_0_in2 + timePath_store_0_out2 >= 0
  -timePath_forkC_1_in1 + timePath_forkC_1_out1 >= 0
  -timePath_forkC_1_in1 + timePath_forkC_1_out2 >= 0
  timePath_buffer_bx_op_1_out1 = 0
  timePath_buffer_bx_op_1_in1 <= 4
  -timePath_phiC_0_in1 + timePath_phiC_0_out1 >= 0.166
  -timePath_phiC_0_in2 + timePath_phiC_0_out1 >= 0.166
  -timePath_phiC_0_in3 + timePath_phiC_0_out1 >= 0.166
  -timePath_cst_3_in1 + timePath_cst_3_out1 >= 0
  -timePath_add_19_in1 + timePath_add_19_out1 >= 1.693
  -timePath_add_19_in2 + timePath_add_19_out1 >= 1.693
  -timePath_icmp_20_in1 + timePath_icmp_20_out1 >= 1.53
  -timePath_icmp_20_in2 + timePath_icmp_20_out1 >= 1.53
  -timePath_branchC_0_in1 + timePath_branchC_0_out1 >= 0
  -timePath_branchC_0_in2 + timePath_branchC_0_out1 >= 0
  -timePath_branchC_0_in1 + timePath_branchC_0_out2 >= 0
  -timePath_branchC_0_in2 + timePath_branchC_0_out2 >= 0
  -timePath_branch_1_in1 + timePath_branch_1_out1 >= 0
  -timePath_branch_1_in2 + timePath_branch_1_out1 >= 0
  -timePath_branch_1_in1 + timePath_branch_1_out2 >= 0
  -timePath_branch_1_in2 + timePath_branch_1_out2 >= 0
  -timePath_fork_4_in1 + timePath_fork_4_out1 >= 0
  -timePath_fork_4_in1 + timePath_fork_4_out2 >= 0
  -timePath_fork_5_in1 + timePath_fork_5_out1 >= 0
  -timePath_fork_5_in1 + timePath_fork_5_out2 >= 0
  -timePath_fork_5_in1 + timePath_fork_5_out3 >= 0
  -timePath_fork_5_in1 + timePath_fork_5_out4 >= 0
  -timePath_fork_5_in1 + timePath_fork_5_out5 >= 0
  -timePath_phi_22_in1 + timePath_phi_22_out1 >= 0.366
  -timePath_phi_22_in2 + timePath_phi_22_out1 >= 0.366
  -timePath_phi_22_in3 + timePath_phi_22_out1 >= 0.366
  -timePath_ret_0_in1 + timePath_ret_0_out1 >= 0
  -timePath_LSQ_hist_in1 + timePath_LSQ_hist_out1 >= 0
  -timePath_LSQ_hist_in2 + timePath_LSQ_hist_out1 >= 0
  -timePath_LSQ_hist_in3 + timePath_LSQ_hist_out1 >= 0
  -timePath_LSQ_hist_in4 + timePath_LSQ_hist_out1 >= 0
  -timePath_LSQ_hist_in5 + timePath_LSQ_hist_out1 >= 0
  -timePath_LSQ_hist_in1 + timePath_LSQ_hist_out2 >= 0
  -timePath_LSQ_hist_in2 + timePath_LSQ_hist_out2 >= 0
  -timePath_LSQ_hist_in3 + timePath_LSQ_hist_out2 >= 0
  -timePath_LSQ_hist_in4 + timePath_LSQ_hist_out2 >= 0
  -timePath_LSQ_hist_in5 + timePath_LSQ_hist_out2 >= 0
  -timePath_MC_feature_in1 + timePath_MC_feature_out1 >= 0
  -timePath_MC_feature_in1 + timePath_MC_feature_out2 >= 0
  -timePath_MC_weight_in1 + timePath_MC_weight_out1 >= 0
  -timePath_MC_weight_in1 + timePath_MC_weight_out2 >= 0
  70 n_fork_025_flop - timeElastic_n_out1 + timeElastic_fork_0_in1 >= 0
  70 cst_0_icmp_05_flop - timeElastic_cst_0_out1 + timeElastic_icmp_0_in2 >= 0
  70 icmp_0_fork_128_flop - timeElastic_icmp_0_out1 + timeElastic_fork_1_in1 >= 0
  70 cst_4_branch_513_flop - timeElastic_cst_4_out1 + timeElastic_branch_5_in1 >= 0
  70 start_0_forkC_633_flop - timeElastic_start_0_out1 + timeElastic_forkC_6_in1 >= 0
  70 cst_5_phi_n270_flop - timeElastic_cst_5_out1 + timeElastic_phi_n2_in1 >= 0
  70 branch_5_phi_22185_flop - timeElastic_branch_5_out2 + timeElastic_phi_22_in2 >= 0
  70 branch_5_sink_4207_flop - timeElastic_branch_5_out1 + timeElastic_sink_4_in1 >= 0
  70 branch_7_phi_n375_flop - timeElastic_branch_7_out2 + timeElastic_phi_n3_in3 >= 0
  70 branch_7_sink_5208_flop - timeElastic_branch_7_out1 + timeElastic_sink_5_in1 >= 0
  70 branchC_9_forkC_1041_flop - timeElastic_branchC_9_out2 + timeElastic_forkC_10_in1 >= 0
  70 branchC_9_sink_7210_flop - timeElastic_branchC_9_out1 + timeElastic_sink_7_in1 >= 0
  70 fork_0_icmp_04_flop + timeElastic_icmp_0_in1 - timeElastic_fork_0_out1 >= 0
  70 fork_0_branch_717_flop + timeElastic_branch_7_in1 - timeElastic_fork_0_out2 >= 0
  70 fork_1_branch_514_flop + timeElastic_branch_5_in2 - timeElastic_fork_1_out1 >= 0
  70 fork_1_branch_718_flop + timeElastic_branch_7_in2 - timeElastic_fork_1_out2 >= 0
  70 fork_1_branchC_922_flop + timeElastic_branchC_9_in2 - timeElastic_fork_1_out3 >= 0
  70 fork_1_phi_22184_flop - timeElastic_fork_1_out4 + timeElastic_phi_22_in1 >= 0
  70 forkC_6_cst_02_flop + timeElastic_cst_0_in1 - timeElastic_forkC_6_out1 >= 0
  70 forkC_6_cst_47_flop + timeElastic_cst_4_in1 - timeElastic_forkC_6_out3 >= 0
  70 forkC_6_cst_511_flop + timeElastic_cst_5_in1 - timeElastic_forkC_6_out4 >= 0
  70 forkC_6_branchC_921_flop + timeElastic_branchC_9_in1 - timeElastic_forkC_6_out2 >= 0
  70 forkC_6_phiC_168_flop - timeElastic_forkC_6_out5 + timeElastic_phiC_1_in3 >= 0
  70 cst_1_phi_346_flop - timeElastic_cst_1_out1 + timeElastic_phi_3_in3 >= 0
  70 forkC_10_cst_139_flop + timeElastic_cst_1_in1 - timeElastic_forkC_10_out1 >= 0
  70 forkC_10_phiC_479_flop - timeElastic_forkC_10_out2 + timeElastic_phiC_4_in3 >= 0
  -timeElastic_phi_3_out1 + timeElastic_fork_2_in1 >= -70
  -timeElastic_load_6_out1 + timeElastic_fork_11_in1 >= -0
  -timeElastic_load_9_out1 + timeElastic_fork_12_in1 >= -0
  -timeElastic_cst_2_out1 + timeElastic_icmp_10_in2 >= -0
  -timeElastic_icmp_10_out1 + timeElastic_fork_3_in1 >= -0
  -timeElastic_forkC_0_out1 + timeElastic_buffer_bx_op_0_in1 >= -70
  -timeElastic_buffer_bx_op_0_out1 + timeElastic_branchC_12_in1 >= -0
  timeElastic_forkC_0_in1 - timeElastic_phiC_1_out1 >= -0
  -timeElastic_phi_n2_out1 + timeElastic_fork_7_in1 >= -0
  -timeElastic_phi_n3_out1 + timeElastic_fork_8_in1 >= -70
  -timeElastic_phiC_4_out1 + timeElastic_forkC_9_in1 >= -70
  -timeElastic_branch_2_out2 + timeElastic_load_14_in2 >= -0
  70 branch_2_sink_1204_flop - timeElastic_branch_2_out1 + timeElastic_sink_1_in1 >= 0
  -timeElastic_branch_3_out2 + timeElastic_add_15_in1 >= -0
  70 branch_3_sink_2205_flop - timeElastic_branch_3_out1 + timeElastic_sink_2_in1 >= 0
  -timeElastic_branch_4_out2 + timeElastic_store_0_in2 >= -0
  70 branch_4_sink_3206_flop - timeElastic_branch_4_out1 + timeElastic_sink_3_in1 >= 0
  timeElastic_phi_n3_in2 - timeElastic_branch_8_out2 >= -0
  70 branch_8_sink_6209_flop - timeElastic_branch_8_out1 + timeElastic_sink_6_in1 >= 0
  timeElastic_phiC_4_in2 - timeElastic_branchC_11_out2 >= -0
  70 branchC_11_sink_8211_flop - timeElastic_branchC_11_out1 + timeElastic_sink_8_in1 >= 0
  -timeElastic_branchC_12_out2 + timeElastic_forkC_1_in1 >= -0
  70 branchC_12_sink_9212_flop - timeElastic_branchC_12_out1 + timeElastic_sink_9_in1 >= 0
  -timeElastic_branchC_13_out2 + timeElastic_phiC_0_in3 >= -70
  70 branchC_13_sink_10213_flop - timeElastic_branchC_13_out1 + timeElastic_sink_10_in1 >= 0
  timeElastic_load_6_in2 - timeElastic_fork_2_out2 >= -0
  timeElastic_branch_2_in1 - timeElastic_fork_2_out3 >= -0
  -timeElastic_fork_2_out1 + timeElastic_add_19_in1 >= -0
  timeElastic_branch_2_in2 - timeElastic_fork_3_out2 >= -0
  timeElastic_branch_3_in2 - timeElastic_fork_3_out3 >= -0
  timeElastic_branch_4_in2 - timeElastic_fork_3_out4 >= -0
  timeElastic_branchC_12_in2 - timeElastic_fork_3_out5 >= -0
  timeElastic_branchC_13_in2 - timeElastic_fork_3_out6 >= -0
  -timeElastic_fork_3_out1 + timeElastic_phiC_0_in1 >= -70
  timeElastic_phi_3_in1 - timeElastic_fork_7_out2 >= -0
  timeElastic_phiC_1_in1 - timeElastic_fork_7_out1 >= -0
  timeElastic_phi_n3_in1 - timeElastic_fork_7_out3 >= -0
  timeElastic_phiC_4_in1 - timeElastic_fork_7_out4 >= -0
  timeElastic_branch_8_in1 - timeElastic_fork_8_out2 >= -0
  -timeElastic_fork_8_out1 + timeElastic_icmp_20_in2 >= -0
  timeElastic_cst_2_in1 - timeElastic_forkC_9_out1 >= -0
  timeElastic_branchC_11_in1 - timeElastic_forkC_9_out2 >= -0
  timeElastic_branchC_13_in1 - timeElastic_forkC_9_out4 >= -0
  -timeElastic_forkC_9_out3 + timeElastic_cst_3_in1 >= -0
  timeElastic_load_9_in2 - timeElastic_fork_11_out1 >= -0
  timeElastic_branch_4_in1 - timeElastic_fork_11_out2 >= -0
  timeElastic_icmp_10_in1 - timeElastic_fork_12_out1 >= -0
  timeElastic_branch_3_in1 - timeElastic_fork_12_out2 >= -0
  -timeElastic_load_14_out1 + timeElastic_add_15_in2 >= -0
  -timeElastic_add_15_out1 + timeElastic_store_0_in1 >= -0
  -timeElastic_forkC_1_out1 + timeElastic_buffer_bx_op_1_in1 >= -70
  -timeElastic_buffer_bx_op_1_out1 + timeElastic_phiC_0_in2 >= -0
  -timeElastic_phiC_0_out1 + timeElastic_branchC_0_in1 >= -0
  -timeElastic_cst_3_out1 + timeElastic_add_19_in2 >= -0
  -timeElastic_add_19_out1 + timeElastic_fork_4_in1 >= -0
  -timeElastic_icmp_20_out1 + timeElastic_fork_5_in1 >= -0
  timeElastic_phiC_1_in2 - timeElastic_branchC_0_out2 >= -0
  70 branchC_0_sink_0203_flop - timeElastic_branchC_0_out1 + timeElastic_sink_0_in1 >= 0
  timeElastic_phi_3_in2 - timeElastic_branch_1_out2 >= -0
  70 branch_1_phi_22186_flop - timeElastic_branch_1_out1 + timeElastic_phi_22_in3 >= 0
  timeElastic_icmp_20_in1 - timeElastic_fork_4_out1 >= -0
  timeElastic_branch_1_in1 - timeElastic_fork_4_out2 >= -0
  timeElastic_phi_n2_in2 - timeElastic_fork_5_out2 >= -0
  timeElastic_branch_8_in2 - timeElastic_fork_5_out4 >= -0
  timeElastic_branchC_11_in2 - timeElastic_fork_5_out5 >= -0
  timeElastic_branchC_0_in2 - timeElastic_fork_5_out1 >= -0
  timeElastic_branch_1_in2 - timeElastic_fork_5_out3 >= -0
  70 phi_22_ret_0188_flop - timeElastic_phi_22_out1 + timeElastic_ret_0_in1 >= 0
  70 ret_0_end_0217_flop - timeElastic_ret_0_out1 + timeElastic_end_0_in4 >= 0
  -timeElastic_cst_0_in1 + timeElastic_cst_0_out1 >= 1
  -timeElastic_icmp_0_in1 + timeElastic_icmp_0_out1 >= 1
  -timeElastic_icmp_0_in2 + timeElastic_icmp_0_out1 >= 1
  -timeElastic_cst_4_in1 + timeElastic_cst_4_out1 >= 1
  -timeElastic_cst_5_in1 + timeElastic_cst_5_out1 >= 1
  -timeElastic_branch_5_in1 + timeElastic_branch_5_out1 >= 1
  -timeElastic_branch_5_in2 + timeElastic_branch_5_out1 >= 1
  -timeElastic_branch_5_in1 + timeElastic_branch_5_out2 >= 1
  -timeElastic_branch_5_in2 + timeElastic_branch_5_out2 >= 1
  -timeElastic_branch_7_in1 + timeElastic_branch_7_out1 >= 1
  -timeElastic_branch_7_in2 + timeElastic_branch_7_out1 >= 1
  -timeElastic_branch_7_in1 + timeElastic_branch_7_out2 >= 1
  -timeElastic_branch_7_in2 + timeElastic_branch_7_out2 >= 1
  -timeElastic_branchC_9_in1 + timeElastic_branchC_9_out1 >= 1
  -timeElastic_branchC_9_in2 + timeElastic_branchC_9_out1 >= 1
  -timeElastic_branchC_9_in1 + timeElastic_branchC_9_out2 >= 1
  -timeElastic_branchC_9_in2 + timeElastic_branchC_9_out2 >= 1
  -timeElastic_fork_0_in1 + timeElastic_fork_0_out1 >= 1
  -timeElastic_fork_0_in1 + timeElastic_fork_0_out2 >= 1
  -timeElastic_fork_1_in1 + timeElastic_fork_1_out1 >= 1
  -timeElastic_fork_1_in1 + timeElastic_fork_1_out2 >= 1
  -timeElastic_fork_1_in1 + timeElastic_fork_1_out3 >= 1
  -timeElastic_fork_1_in1 + timeElastic_fork_1_out4 >= 1
  -timeElastic_forkC_6_in1 + timeElastic_forkC_6_out1 >= 1
  -timeElastic_forkC_6_in1 + timeElastic_forkC_6_out2 >= 1
  -timeElastic_forkC_6_in1 + timeElastic_forkC_6_out3 >= 1
  -timeElastic_forkC_6_in1 + timeElastic_forkC_6_out4 >= 1
  -timeElastic_forkC_6_in1 + timeElastic_forkC_6_out5 >= 1
  -timeElastic_cst_1_in1 + timeElastic_cst_1_out1 >= 1
  -timeElastic_forkC_10_in1 + timeElastic_forkC_10_out1 >= 1
  -timeElastic_forkC_10_in1 + timeElastic_forkC_10_out2 >= 1
  -timeElastic_phi_3_in1 + timeElastic_phi_3_out1 >= 1
  -timeElastic_phi_3_in2 + timeElastic_phi_3_out1 >= 1
  -timeElastic_phi_3_in3 + timeElastic_phi_3_out1 >= 1
  -timeElastic_load_6_in1 + timeElastic_load_6_out1 >= 1
  -timeElastic_load_6_in2 + timeElastic_load_6_out1 >= 1
  -timeElastic_load_6_in1 + timeElastic_load_6_out2 >= 1
  -timeElastic_load_6_in2 + timeElastic_load_6_out2 >= 1
  -timeElastic_load_9_in1 + timeElastic_load_9_out1 >= 1
  -timeElastic_load_9_in2 + timeElastic_load_9_out1 >= 1
  -timeElastic_load_9_in1 + timeElastic_load_9_out2 >= 1
  -timeElastic_load_9_in2 + timeElastic_load_9_out2 >= 1
  -timeElastic_cst_2_in1 + timeElastic_cst_2_out1 >= 1
  -timeElastic_icmp_10_in1 + timeElastic_icmp_10_out1 >= 1
  -timeElastic_icmp_10_in2 + timeElastic_icmp_10_out1 >= 1
  -timeElastic_forkC_0_in1 + timeElastic_forkC_0_out1 >= 1
  -timeElastic_forkC_0_in1 + timeElastic_forkC_0_out2 >= 1
  -timeElastic_buffer_bx_op_0_in1 + timeElastic_buffer_bx_op_0_out1 >= 1
  -timeElastic_phiC_1_in1 + timeElastic_phiC_1_out1 >= 1
  -timeElastic_phiC_1_in2 + timeElastic_phiC_1_out1 >= 1
  -timeElastic_phiC_1_in3 + timeElastic_phiC_1_out1 >= 1
  -timeElastic_phi_n2_in1 + timeElastic_phi_n2_out1 >= 1
  -timeElastic_phi_n2_in2 + timeElastic_phi_n2_out1 >= 1
  -timeElastic_phi_n3_in1 + timeElastic_phi_n3_out1 >= 1
  -timeElastic_phi_n3_in2 + timeElastic_phi_n3_out1 >= 1
  -timeElastic_phi_n3_in3 + timeElastic_phi_n3_out1 >= 1
  -timeElastic_phiC_4_in1 + timeElastic_phiC_4_out1 >= 1
  -timeElastic_phiC_4_in2 + timeElastic_phiC_4_out1 >= 1
  -timeElastic_phiC_4_in3 + timeElastic_phiC_4_out1 >= 1
  -timeElastic_branch_2_in1 + timeElastic_branch_2_out1 >= 1
  -timeElastic_branch_2_in2 + timeElastic_branch_2_out1 >= 1
  -timeElastic_branch_2_in1 + timeElastic_branch_2_out2 >= 1
  -timeElastic_branch_2_in2 + timeElastic_branch_2_out2 >= 1
  -timeElastic_branch_3_in1 + timeElastic_branch_3_out1 >= 1
  -timeElastic_branch_3_in2 + timeElastic_branch_3_out1 >= 1
  -timeElastic_branch_3_in1 + timeElastic_branch_3_out2 >= 1
  -timeElastic_branch_3_in2 + timeElastic_branch_3_out2 >= 1
  -timeElastic_branch_4_in1 + timeElastic_branch_4_out1 >= 1
  -timeElastic_branch_4_in2 + timeElastic_branch_4_out1 >= 1
  -timeElastic_branch_4_in1 + timeElastic_branch_4_out2 >= 1
  -timeElastic_branch_4_in2 + timeElastic_branch_4_out2 >= 1
  -timeElastic_branch_8_in1 + timeElastic_branch_8_out1 >= 1
  -timeElastic_branch_8_in2 + timeElastic_branch_8_out1 >= 1
  -timeElastic_branch_8_in1 + timeElastic_branch_8_out2 >= 1
  -timeElastic_branch_8_in2 + timeElastic_branch_8_out2 >= 1
  -timeElastic_branchC_11_in1 + timeElastic_branchC_11_out1 >= 1
  -timeElastic_branchC_11_in2 + timeElastic_branchC_11_out1 >= 1
  -timeElastic_branchC_11_in1 + timeElastic_branchC_11_out2 >= 1
  -timeElastic_branchC_11_in2 + timeElastic_branchC_11_out2 >= 1
  -timeElastic_branchC_12_in1 + timeElastic_branchC_12_out1 >= 1
  -timeElastic_branchC_12_in2 + timeElastic_branchC_12_out1 >= 1
  -timeElastic_branchC_12_in1 + timeElastic_branchC_12_out2 >= 1
  -timeElastic_branchC_12_in2 + timeElastic_branchC_12_out2 >= 1
  -timeElastic_branchC_13_in1 + timeElastic_branchC_13_out1 >= 1
  -timeElastic_branchC_13_in2 + timeElastic_branchC_13_out1 >= 1
  -timeElastic_branchC_13_in1 + timeElastic_branchC_13_out2 >= 1
  -timeElastic_branchC_13_in2 + timeElastic_branchC_13_out2 >= 1
  -timeElastic_fork_2_in1 + timeElastic_fork_2_out1 >= 1
  -timeElastic_fork_2_in1 + timeElastic_fork_2_out2 >= 1
  -timeElastic_fork_2_in1 + timeElastic_fork_2_out3 >= 1
  -timeElastic_fork_3_in1 + timeElastic_fork_3_out1 >= 1
  -timeElastic_fork_3_in1 + timeElastic_fork_3_out2 >= 1
  -timeElastic_fork_3_in1 + timeElastic_fork_3_out3 >= 1
  -timeElastic_fork_3_in1 + timeElastic_fork_3_out4 >= 1
  -timeElastic_fork_3_in1 + timeElastic_fork_3_out5 >= 1
  -timeElastic_fork_3_in1 + timeElastic_fork_3_out6 >= 1
  -timeElastic_fork_7_in1 + timeElastic_fork_7_out1 >= 1
  -timeElastic_fork_7_in1 + timeElastic_fork_7_out2 >= 1
  -timeElastic_fork_7_in1 + timeElastic_fork_7_out3 >= 1
  -timeElastic_fork_7_in1 + timeElastic_fork_7_out4 >= 1
  -timeElastic_fork_8_in1 + timeElastic_fork_8_out1 >= 1
  -timeElastic_fork_8_in1 + timeElastic_fork_8_out2 >= 1
  -timeElastic_forkC_9_in1 + timeElastic_forkC_9_out1 >= 1
  -timeElastic_forkC_9_in1 + timeElastic_forkC_9_out2 >= 1
  -timeElastic_forkC_9_in1 + timeElastic_forkC_9_out3 >= 1
  -timeElastic_forkC_9_in1 + timeElastic_forkC_9_out4 >= 1
  -timeElastic_fork_11_in1 + timeElastic_fork_11_out1 >= 1
  -timeElastic_fork_11_in1 + timeElastic_fork_11_out2 >= 1
  -timeElastic_fork_12_in1 + timeElastic_fork_12_out1 >= 1
  -timeElastic_fork_12_in1 + timeElastic_fork_12_out2 >= 1
  -timeElastic_load_14_in1 + timeElastic_load_14_out1 >= 1
  -timeElastic_load_14_in2 + timeElastic_load_14_out1 >= 1
  -timeElastic_load_14_in1 + timeElastic_load_14_out2 >= 1
  -timeElastic_load_14_in2 + timeElastic_load_14_out2 >= 1
  -timeElastic_add_15_in1 + timeElastic_add_15_out1 >= 1
  -timeElastic_add_15_in2 + timeElastic_add_15_out1 >= 1
  -timeElastic_store_0_in1 + timeElastic_store_0_out1 >= 1
  -timeElastic_store_0_in2 + timeElastic_store_0_out1 >= 1
  -timeElastic_store_0_in1 + timeElastic_store_0_out2 >= 1
  -timeElastic_store_0_in2 + timeElastic_store_0_out2 >= 1
  -timeElastic_forkC_1_in1 + timeElastic_forkC_1_out1 >= 1
  -timeElastic_forkC_1_in1 + timeElastic_forkC_1_out2 >= 1
  -timeElastic_buffer_bx_op_1_in1 + timeElastic_buffer_bx_op_1_out1 >= 1
  -timeElastic_phiC_0_in1 + timeElastic_phiC_0_out1 >= 1
  -timeElastic_phiC_0_in2 + timeElastic_phiC_0_out1 >= 1
  -timeElastic_phiC_0_in3 + timeElastic_phiC_0_out1 >= 1
  -timeElastic_cst_3_in1 + timeElastic_cst_3_out1 >= 1
  -timeElastic_add_19_in1 + timeElastic_add_19_out1 >= 1
  -timeElastic_add_19_in2 + timeElastic_add_19_out1 >= 1
  -timeElastic_icmp_20_in1 + timeElastic_icmp_20_out1 >= 1
  -timeElastic_icmp_20_in2 + timeElastic_icmp_20_out1 >= 1
  -timeElastic_branchC_0_in1 + timeElastic_branchC_0_out1 >= 1
  -timeElastic_branchC_0_in2 + timeElastic_branchC_0_out1 >= 1
  -timeElastic_branchC_0_in1 + timeElastic_branchC_0_out2 >= 1
  -timeElastic_branchC_0_in2 + timeElastic_branchC_0_out2 >= 1
  -timeElastic_branch_1_in1 + timeElastic_branch_1_out1 >= 1
  -timeElastic_branch_1_in2 + timeElastic_branch_1_out1 >= 1
  -timeElastic_branch_1_in1 + timeElastic_branch_1_out2 >= 1
  -timeElastic_branch_1_in2 + timeElastic_branch_1_out2 >= 1
  -timeElastic_fork_4_in1 + timeElastic_fork_4_out1 >= 1
  -timeElastic_fork_4_in1 + timeElastic_fork_4_out2 >= 1
  -timeElastic_fork_5_in1 + timeElastic_fork_5_out1 >= 1
  -timeElastic_fork_5_in1 + timeElastic_fork_5_out2 >= 1
  -timeElastic_fork_5_in1 + timeElastic_fork_5_out3 >= 1
  -timeElastic_fork_5_in1 + timeElastic_fork_5_out4 >= 1
  -timeElastic_fork_5_in1 + timeElastic_fork_5_out5 >= 1
  -timeElastic_phi_22_in1 + timeElastic_phi_22_out1 >= 1
  -timeElastic_phi_22_in2 + timeElastic_phi_22_out1 >= 1
  -timeElastic_phi_22_in3 + timeElastic_phi_22_out1 >= 1
  -timeElastic_ret_0_in1 + timeElastic_ret_0_out1 >= 1
  -timeElastic_LSQ_hist_in1 + timeElastic_LSQ_hist_out1 >= 1
  -timeElastic_LSQ_hist_in2 + timeElastic_LSQ_hist_out1 >= 1
  -timeElastic_LSQ_hist_in3 + timeElastic_LSQ_hist_out1 >= 1
  -timeElastic_LSQ_hist_in4 + timeElastic_LSQ_hist_out1 >= 1
  -timeElastic_LSQ_hist_in5 + timeElastic_LSQ_hist_out1 >= 1
  -timeElastic_LSQ_hist_in1 + timeElastic_LSQ_hist_out2 >= 1
  -timeElastic_LSQ_hist_in2 + timeElastic_LSQ_hist_out2 >= 1
  -timeElastic_LSQ_hist_in3 + timeElastic_LSQ_hist_out2 >= 1
  -timeElastic_LSQ_hist_in4 + timeElastic_LSQ_hist_out2 >= 1
  -timeElastic_LSQ_hist_in5 + timeElastic_LSQ_hist_out2 >= 1
  -timeElastic_MC_feature_in1 + timeElastic_MC_feature_out1 >= 1
  -timeElastic_MC_feature_in1 + timeElastic_MC_feature_out2 >= 1
  -timeElastic_MC_weight_in1 + timeElastic_MC_weight_out1 >= 1
  -timeElastic_MC_weight_in1 + timeElastic_MC_weight_out2 >= 1
Binary
  n_fork_025_flop cst_0_icmp_05_flop icmp_0_fork_128_flop cst_4_branch_513_flop start_0_forkC_633_flop cst_5_phi_n270_flop branch_5_phi_22185_flop branch_5_sink_4207_flop branch_7_phi_n375_flop branch_7_sink_5208_flop branchC_9_forkC_1041_flop branchC_9_sink_7210_flop fork_0_icmp_04_flop fork_0_branch_717_flop fork_1_branch_514_flop fork_1_branch_718_flop fork_1_branchC_922_flop fork_1_phi_22184_flop forkC_6_cst_02_flop forkC_6_cst_47_flop forkC_6_cst_511_flop forkC_6_branchC_921_flop forkC_6_phiC_168_flop cst_1_phi_346_flop forkC_10_cst_139_flop forkC_10_phiC_479_flop load_6_MC_feature197_flop load_9_LSQ_hist192_flop forkC_0_LSQ_hist190_flop branch_2_sink_1204_flop branch_3_sink_2205_flop branch_4_sink_3206_flop branch_8_sink_6209_flop branchC_11_sink_8211_flop branchC_12_sink_9212_flop branchC_13_sink_10213_flop load_14_MC_weight200_flop store_0_LSQ_hist193_flop store_0_LSQ_hist194_flop forkC_1_LSQ_hist191_flop branchC_0_sink_0203_flop branch_1_phi_22186_flop phi_22_ret_0188_flop ret_0_end_0217_flop LSQ_hist_load_952_flop LSQ_hist_end_0214_flop MC_feature_load_648_flop MC_feature_end_0215_flop MC_weight_load_14139_flop MC_weight_end_0216_flop
End
